n=100;
m=100;
c=[204 202 300 263 299 285 212 249 271 249 220 235 254 260 300 249 206 253 226 256 236 216 261 230 217 200 203 250 232 258 263 237 264 203 232 215 276 276 215 242 273 269 253 240 270 230 253 211 239 218 216 247 296 281 275 215 253 225 269 277 283 281 300 291 263 280 292 238 290 243 293 226 205 208 298 236 220 206 200 265 240 229 213 238 207 294 220 220 260 221 204 261 298 242 254 226 283 286 296 296];
w=[238 264 201 182 143 119 198 115 174 253 297 203 255 294 192 233 165 167 240 205 171 256 234 202 131 289 205 232 188 104 169 170 106 280 234 289 271 189 128 230 213 208 204 229 102 297 160 105 213 241 169 207 170 176 219 269 126 206 197 200 114 205 191 199 159 113 132 202 168 129 145 164 198 146 251 296 162 150 222 170 238 213 196 119 126 190 148 205 174 192 278 264 296 230 281 159 163 129 103 155];
t=[
[0 197 -1 -1 -1 -1 -1 -1 -1 -1 -1 -1 -1 390 -1 -1 -1 -1 -1 -1 -1 -1 -1 -1 321 490 -1 493 -1 435 220 -1 -1 -1 -1 390 -1 -1 450 -1 -1 -1 -1 101 375 -1 -1 -1 -1 -1 -1 337 246 -1 -1 114 124 -1 -1 -1 -1 -1 -1 159 -1 -1 -1 -1 -1 -1 -1 322 -1 414 -1 -1 -1 -1 -1 -1 166 -1 -1 -1 -1 -1 -1 -1 -1 198 -1 175 -1 407 -1 -1 -1 -1 -1 -1]
[197 0 -1 -1 384 -1 412 -1 -1 -1 -1 -1 -1 -1 -1 -1 -1 -1 154 -1 -1 -1 -1 483 349 220 -1 -1 136 -1 -1 -1 -1 136 -1 392 -1 -1 -1 -1 -1 -1 -1 -1 -1 231 -1 -1 387 -1 -1 -1 -1 -1 116 -1 489 -1 -1 -1 -1 -1 265 -1 -1 -1 -1 -1 -1 -1 -1 -1 -1 -1 278 -1 261 105 -1 274 -1 -1 -1 102 -1 -1 -1 -1 -1 -1 281 -1 -1 -1 -1 -1 -1 353 -1 109]
[-1 -1 0 -1 -1 -1 279 -1 -1 -1 473 -1 -1 -1 -1 -1 -1 -1 -1 453 -1 -1 -1 -1 -1 -1 -1 -1 -1 -1 -1 -1 -1 320 154 -1 -1 -1 -1 -1 -1 -1 -1 -1 -1 452 -1 -1 -1 -1 -1 -1 -1 481 -1 -1 -1 -1 -1 -1 -1 -1 -1 -1 -1 -1 -1 430 -1 -1 -1 -1 -1 -1 -1 -1 -1 -1 -1 -1 -1 272 -1 -1 -1 -1 -1 -1 -1 -1 -1 -1 -1 169 413 371 -1 -1 182 -1]
[-1 -1 -1 0 -1 -1 -1 485 -1 -1 109 -1 -1 334 326 -1 -1 -1 -1 441 -1 -1 -1 -1 -1 -1 -1 -1 -1 -1 426 -1 -1 -1 -1 124 -1 422 334 -1 -1 -1 -1 188 450 -1 -1 -1 -1 -1 -1 439 -1 -1 -1 -1 -1 -1 -1 -1 -1 -1 -1 -1 494 -1 469 -1 -1 -1 495 -1 -1 356 211 420 -1 -1 -1 -1 350 -1 -1 -1 -1 -1 -1 -1 -1 253 -1 -1 -1 -1 -1 -1 -1 -1 -1 -1]
[-1 384 -1 -1 0 -1 -1 -1 -1 -1 -1 -1 -1 -1 150 298 -1 -1 -1 304 -1 -1 -1 -1 -1 -1 -1 -1 461 -1 -1 -1 -1 -1 -1 -1 -1 498 -1 -1 -1 366 -1 482 -1 -1 -1 445 215 -1 -1 491 -1 -1 160 -1 -1 117 -1 -1 129 -1 181 -1 -1 -1 -1 -1 -1 100 102 -1 -1 -1 -1 -1 -1 -1 -1 -1 -1 -1 -1 -1 -1 -1 453 -1 -1 118 -1 105 147 262 -1 -1 -1 -1 302 -1]
[-1 -1 -1 -1 -1 0 -1 -1 446 -1 -1 239 -1 -1 -1 -1 -1 -1 -1 -1 -1 -1 -1 -1 -1 -1 -1 -1 -1 -1 -1 -1 -1 -1 -1 -1 331 -1 -1 -1 286 107 -1 -1 -1 -1 345 -1 -1 -1 -1 -1 216 449 333 308 -1 -1 135 -1 -1 -1 -1 207 -1 346 -1 -1 -1 -1 -1 -1 -1 -1 -1 -1 -1 -1 -1 -1 -1 173 435 -1 -1 -1 -1 -1 -1 -1 -1 -1 -1 -1 -1 -1 -1 -1 -1 -1]
[-1 412 279 -1 -1 -1 0 -1 152 -1 123 345 -1 -1 -1 243 -1 -1 -1 -1 -1 -1 -1 -1 -1 -1 -1 -1 -1 -1 -1 -1 -1 -1 -1 142 -1 -1 -1 112 -1 -1 -1 -1 -1 315 -1 323 -1 -1 -1 -1 -1 -1 -1 -1 -1 -1 150 -1 -1 -1 -1 -1 -1 -1 -1 -1 -1 -1 441 -1 321 -1 -1 176 -1 -1 -1 -1 -1 161 -1 -1 -1 -1 -1 -1 350 -1 -1 -1 -1 -1 221 -1 -1 323 -1 -1]
[-1 -1 -1 485 -1 -1 -1 0 -1 -1 -1 -1 -1 -1 139 472 -1 256 -1 -1 -1 -1 493 -1 -1 -1 113 -1 281 331 -1 -1 165 -1 -1 -1 248 139 -1 -1 -1 -1 -1 -1 -1 -1 -1 317 119 -1 -1 -1 281 -1 -1 -1 -1 128 -1 -1 478 495 216 -1 -1 -1 -1 -1 -1 -1 -1 -1 -1 340 -1 393 132 -1 226 -1 267 375 -1 -1 -1 -1 391 -1 -1 231 -1 -1 213 -1 -1 -1 367 451 -1 329]
[-1 -1 -1 -1 -1 446 152 -1 0 -1 -1 -1 -1 -1 -1 -1 -1 -1 -1 -1 -1 -1 -1 -1 -1 -1 -1 -1 -1 -1 -1 337 -1 -1 -1 -1 -1 -1 -1 -1 146 -1 -1 -1 -1 -1 -1 493 -1 -1 -1 -1 -1 -1 -1 -1 -1 -1 -1 -1 -1 -1 -1 -1 -1 -1 -1 -1 -1 299 -1 -1 -1 -1 -1 487 -1 -1 -1 -1 -1 -1 -1 -1 -1 -1 414 422 -1 -1 -1 -1 -1 448 319 -1 462 -1 -1 -1]
[-1 -1 -1 -1 -1 -1 -1 -1 -1 0 -1 -1 494 -1 -1 -1 -1 -1 -1 -1 -1 -1 -1 -1 -1 -1 -1 -1 -1 -1 164 -1 -1 -1 -1 -1 -1 182 -1 -1 155 -1 275 -1 -1 -1 111 -1 -1 -1 -1 -1 499 410 -1 -1 -1 195 464 -1 229 -1 -1 -1 -1 -1 262 -1 -1 -1 -1 -1 424 -1 -1 402 -1 -1 483 -1 467 -1 -1 -1 383 -1 -1 -1 -1 -1 -1 -1 -1 -1 -1 -1 -1 -1 -1 -1]
[-1 -1 473 109 -1 -1 123 -1 -1 -1 0 -1 -1 -1 133 -1 -1 -1 343 -1 248 -1 -1 -1 -1 -1 350 -1 -1 -1 415 -1 -1 -1 412 -1 429 240 125 -1 -1 -1 -1 -1 -1 -1 -1 -1 -1 292 212 -1 -1 -1 -1 -1 -1 -1 -1 -1 -1 129 -1 -1 -1 -1 -1 -1 289 247 -1 -1 -1 -1 -1 412 -1 -1 -1 -1 468 -1 -1 187 -1 -1 -1 -1 -1 -1 -1 -1 -1 -1 -1 -1 116 -1 -1 -1]
[-1 -1 -1 -1 -1 239 345 -1 -1 -1 -1 0 -1 -1 -1 -1 -1 -1 -1 476 -1 272 167 -1 273 -1 -1 -1 -1 -1 -1 -1 -1 -1 -1 -1 223 -1 -1 -1 -1 292 -1 488 -1 -1 232 -1 -1 407 -1 265 -1 -1 -1 -1 -1 -1 -1 -1 -1 -1 255 -1 -1 -1 -1 -1 -1 -1 270 378 -1 203 -1 -1 -1 -1 179 -1 -1 -1 -1 297 474 -1 381 -1 -1 -1 -1 -1 -1 -1 -1 -1 -1 -1 -1 -1]
[-1 -1 -1 -1 -1 -1 -1 -1 -1 494 -1 -1 0 -1 461 -1 179 -1 294 -1 -1 -1 218 -1 -1 -1 -1 -1 -1 -1 -1 -1 -1 -1 -1 311 387 -1 -1 -1 -1 438 -1 -1 -1 -1 -1 165 -1 -1 -1 -1 -1 425 -1 -1 -1 -1 -1 -1 -1 -1 -1 -1 -1 360 197 -1 -1 -1 -1 -1 -1 -1 492 -1 -1 -1 -1 -1 -1 -1 -1 -1 -1 -1 -1 -1 -1 -1 -1 -1 -1 -1 -1 -1 -1 -1 142 -1]
[390 -1 -1 334 -1 -1 -1 -1 -1 -1 -1 -1 -1 0 -1 -1 101 -1 -1 -1 231 -1 -1 -1 -1 248 -1 484 147 -1 189 -1 -1 -1 -1 -1 312 342 -1 -1 -1 -1 -1 -1 -1 -1 -1 -1 397 -1 -1 -1 -1 -1 -1 -1 -1 -1 -1 -1 435 -1 -1 492 182 170 -1 -1 -1 -1 -1 -1 173 -1 473 -1 -1 -1 -1 -1 -1 389 -1 -1 -1 -1 -1 -1 -1 -1 -1 337 -1 -1 -1 353 436 -1 -1 -1]
[-1 -1 -1 326 150 -1 -1 139 -1 -1 133 -1 461 -1 0 -1 -1 493 -1 480 -1 -1 -1 405 -1 -1 -1 177 -1 188 -1 -1 -1 -1 -1 -1 -1 -1 -1 -1 -1 -1 -1 -1 -1 256 -1 -1 -1 261 -1 -1 -1 292 -1 -1 -1 -1 -1 -1 -1 -1 -1 -1 493 -1 -1 -1 -1 -1 -1 214 -1 -1 -1 -1 -1 -1 -1 -1 188 -1 -1 -1 -1 -1 -1 -1 -1 -1 -1 -1 338 -1 -1 -1 -1 -1 -1 -1]
[-1 -1 -1 -1 298 -1 243 472 -1 -1 -1 -1 -1 -1 -1 0 -1 -1 142 -1 -1 -1 -1 139 -1 -1 -1 -1 -1 -1 -1 -1 192 -1 -1 193 -1 -1 283 -1 -1 -1 -1 -1 -1 -1 -1 -1 -1 -1 -1 -1 352 -1 111 342 -1 -1 -1 237 -1 -1 -1 107 -1 -1 -1 184 -1 -1 -1 -1 -1 201 -1 -1 -1 -1 -1 -1 396 -1 -1 -1 -1 -1 -1 -1 302 299 417 -1 -1 -1 -1 -1 -1 237 -1 191]
[-1 -1 -1 -1 -1 -1 -1 -1 -1 -1 -1 -1 179 101 -1 -1 0 223 -1 -1 -1 371 -1 -1 -1 -1 -1 -1 -1 -1 -1 119 -1 -1 -1 -1 -1 -1 402 260 -1 -1 -1 -1 -1 -1 439 -1 -1 -1 415 156 -1 -1 -1 288 223 282 -1 424 -1 -1 -1 -1 -1 -1 -1 -1 262 449 -1 -1 -1 -1 -1 -1 -1 -1 -1 -1 -1 -1 -1 -1 -1 -1 -1 -1 -1 -1 -1 -1 -1 -1 -1 -1 -1 -1 -1 -1]
[-1 -1 -1 -1 -1 -1 -1 256 -1 -1 -1 -1 -1 -1 493 -1 223 0 -1 -1 -1 -1 253 -1 -1 -1 -1 -1 -1 -1 -1 -1 -1 379 -1 -1 -1 211 -1 -1 446 -1 -1 -1 -1 -1 -1 273 317 -1 -1 -1 228 138 -1 -1 -1 -1 -1 134 348 -1 -1 -1 -1 -1 -1 384 -1 118 -1 -1 -1 -1 136 -1 -1 -1 -1 -1 -1 -1 191 -1 -1 -1 -1 -1 -1 -1 350 253 -1 -1 174 -1 -1 131 181 -1]
[-1 154 -1 -1 -1 -1 -1 -1 -1 -1 343 -1 294 -1 -1 142 -1 -1 0 -1 197 -1 -1 -1 -1 -1 -1 214 -1 129 358 -1 -1 167 -1 -1 -1 -1 372 -1 -1 -1 462 -1 -1 -1 -1 -1 125 -1 424 -1 494 -1 -1 -1 259 -1 335 -1 -1 -1 -1 238 -1 -1 118 -1 -1 -1 -1 -1 -1 -1 -1 -1 -1 322 -1 -1 314 -1 -1 -1 -1 -1 -1 495 -1 -1 -1 120 -1 -1 -1 412 -1 -1 293 -1]
[-1 -1 453 441 304 -1 -1 -1 -1 -1 -1 476 -1 -1 480 -1 -1 -1 -1 0 -1 -1 -1 -1 -1 -1 -1 494 -1 -1 -1 -1 -1 -1 -1 264 -1 -1 294 -1 -1 -1 -1 -1 -1 -1 -1 107 323 -1 -1 -1 -1 -1 -1 -1 -1 376 -1 151 -1 -1 -1 -1 -1 -1 -1 -1 -1 -1 -1 495 338 339 -1 -1 -1 -1 -1 108 -1 -1 376 -1 -1 139 -1 -1 -1 406 -1 -1 -1 -1 -1 216 -1 -1 407 -1]
[-1 -1 -1 -1 -1 -1 -1 -1 -1 -1 248 -1 -1 231 -1 -1 -1 -1 197 -1 0 -1 -1 -1 -1 -1 -1 -1 300 241 -1 -1 -1 -1 -1 -1 131 -1 434 -1 -1 -1 492 -1 -1 -1 336 -1 -1 114 -1 -1 -1 -1 -1 -1 -1 -1 -1 -1 291 -1 -1 209 -1 205 -1 -1 -1 270 -1 -1 -1 -1 -1 -1 -1 -1 322 -1 -1 -1 -1 -1 -1 -1 -1 297 -1 368 -1 -1 -1 -1 242 -1 -1 -1 105 -1]
[-1 -1 -1 -1 -1 -1 -1 -1 -1 -1 -1 272 -1 -1 -1 -1 371 -1 -1 -1 -1 0 -1 -1 223 -1 -1 -1 -1 -1 -1 -1 -1 -1 -1 -1 296 -1 -1 -1 -1 -1 -1 -1 -1 -1 -1 -1 -1 -1 -1 -1 440 -1 -1 401 -1 -1 -1 473 -1 -1 -1 -1 -1 -1 -1 -1 -1 351 -1 -1 -1 -1 -1 -1 -1 -1 -1 -1 -1 -1 -1 -1 -1 479 -1 -1 -1 453 433 -1 -1 -1 -1 -1 -1 -1 -1 -1]
[-1 -1 -1 -1 -1 -1 -1 493 -1 -1 -1 167 218 -1 -1 -1 -1 253 -1 -1 -1 -1 0 326 -1 -1 359 -1 -1 380 -1 149 399 151 -1 -1 -1 -1 -1 -1 -1 -1 -1 -1 -1 -1 -1 -1 -1 122 -1 -1 318 -1 -1 306 -1 -1 -1 -1 -1 -1 -1 -1 -1 253 -1 -1 -1 -1 -1 -1 -1 -1 -1 -1 -1 -1 -1 -1 -1 -1 -1 -1 -1 -1 -1 -1 -1 -1 254 -1 -1 213 -1 -1 -1 186 489 446]
[-1 483 -1 -1 -1 -1 -1 -1 -1 -1 -1 -1 -1 -1 405 139 -1 -1 -1 -1 -1 -1 326 0 203 -1 -1 -1 413 -1 -1 -1 126 -1 -1 -1 -1 -1 -1 -1 461 -1 -1 -1 -1 -1 -1 -1 -1 -1 -1 -1 -1 -1 -1 341 -1 -1 -1 -1 -1 -1 -1 -1 -1 322 -1 -1 457 -1 -1 -1 -1 -1 189 172 148 -1 -1 -1 347 178 250 -1 -1 -1 294 344 -1 -1 -1 -1 -1 -1 -1 -1 -1 -1 -1 -1]
[321 349 -1 -1 -1 -1 -1 -1 -1 -1 -1 273 -1 -1 -1 -1 -1 -1 -1 -1 -1 223 -1 203 0 -1 313 -1 -1 -1 -1 -1 -1 -1 472 -1 -1 -1 133 -1 114 -1 460 295 -1 -1 -1 -1 -1 -1 -1 -1 -1 -1 -1 -1 -1 -1 -1 -1 -1 -1 -1 -1 -1 -1 -1 -1 -1 -1 -1 -1 -1 -1 -1 177 -1 -1 126 -1 499 -1 119 -1 -1 483 -1 447 -1 -1 -1 -1 -1 -1 442 -1 184 454 423 -1]
[490 220 -1 -1 -1 -1 -1 -1 -1 -1 -1 -1 -1 248 -1 -1 -1 -1 -1 -1 -1 -1 -1 -1 -1 0 -1 -1 213 -1 -1 292 -1 -1 278 444 -1 -1 -1 434 -1 -1 -1 295 -1 -1 -1 -1 -1 -1 -1 -1 -1 -1 464 -1 476 -1 -1 -1 160 -1 -1 -1 -1 -1 -1 -1 -1 -1 -1 -1 -1 193 -1 -1 -1 -1 -1 -1 -1 -1 108 136 264 -1 129 -1 -1 144 -1 -1 331 338 -1 -1 -1 314 -1 168]
[-1 -1 -1 -1 -1 -1 -1 113 -1 -1 350 -1 -1 -1 -1 -1 -1 -1 -1 -1 -1 -1 359 -1 313 -1 0 -1 -1 -1 -1 -1 -1 -1 480 319 209 -1 -1 -1 -1 -1 -1 -1 -1 -1 -1 -1 -1 -1 -1 -1 -1 -1 -1 -1 313 -1 -1 -1 -1 161 284 -1 -1 -1 -1 -1 -1 -1 -1 121 132 -1 -1 -1 -1 226 -1 214 -1 -1 -1 -1 -1 -1 -1 -1 -1 -1 -1 -1 -1 -1 -1 161 -1 418 -1 -1]
[493 -1 -1 -1 -1 -1 -1 -1 -1 -1 -1 -1 -1 484 177 -1 -1 -1 214 494 -1 -1 -1 -1 -1 -1 -1 0 -1 -1 -1 399 -1 -1 409 -1 305 -1 -1 -1 -1 -1 -1 327 179 114 269 -1 295 323 -1 -1 342 -1 -1 -1 -1 -1 -1 -1 -1 -1 -1 -1 -1 -1 197 -1 -1 -1 -1 -1 -1 -1 -1 -1 -1 289 -1 160 -1 -1 -1 -1 -1 -1 478 -1 -1 -1 499 -1 -1 -1 -1 -1 -1 -1 -1 -1]
[-1 136 -1 -1 461 -1 -1 281 -1 -1 -1 -1 -1 147 -1 -1 -1 -1 -1 -1 300 -1 -1 413 -1 213 -1 -1 0 -1 -1 -1 -1 -1 -1 -1 -1 -1 -1 -1 -1 -1 -1 -1 -1 169 -1 -1 -1 117 -1 -1 304 -1 -1 -1 -1 -1 -1 -1 215 -1 -1 -1 450 195 482 -1 -1 248 119 -1 -1 -1 -1 -1 -1 -1 463 -1 -1 -1 -1 -1 -1 -1 -1 -1 -1 246 -1 386 -1 -1 477 432 361 -1 228 -1]
[435 -1 -1 -1 -1 -1 -1 331 -1 -1 -1 -1 -1 -1 188 -1 -1 -1 129 -1 241 -1 380 -1 -1 -1 -1 -1 -1 0 -1 -1 466 -1 -1 482 -1 -1 -1 -1 -1 474 210 -1 -1 -1 -1 -1 -1 -1 -1 -1 -1 -1 -1 -1 -1 -1 -1 -1 306 -1 -1 -1 213 -1 -1 -1 -1 -1 -1 -1 493 -1 -1 142 -1 -1 -1 287 -1 324 -1 448 -1 202 440 -1 -1 -1 -1 -1 -1 -1 416 -1 -1 -1 -1 117]
[220 -1 -1 426 -1 -1 -1 -1 -1 164 415 -1 -1 189 -1 -1 -1 -1 358 -1 -1 -1 -1 -1 -1 -1 -1 -1 -1 -1 0 134 -1 -1 -1 -1 376 -1 -1 412 -1 -1 -1 -1 -1 -1 -1 -1 -1 -1 -1 -1 -1 -1 -1 -1 -1 274 -1 -1 -1 -1 -1 -1 -1 -1 457 -1 -1 -1 -1 -1 -1 -1 396 -1 -1 448 -1 -1 -1 -1 -1 -1 -1 -1 272 317 -1 -1 -1 -1 194 -1 -1 424 -1 -1 -1 -1]
[-1 -1 -1 -1 -1 -1 -1 -1 337 -1 -1 -1 -1 -1 -1 -1 119 -1 -1 -1 -1 -1 149 -1 -1 292 -1 399 -1 -1 134 0 290 111 200 -1 -1 -1 -1 -1 -1 -1 -1 -1 -1 -1 -1 -1 -1 -1 -1 448 -1 -1 -1 -1 159 297 -1 -1 -1 -1 289 -1 -1 -1 474 -1 186 -1 480 225 322 -1 228 365 -1 500 -1 -1 -1 -1 -1 -1 -1 -1 -1 -1 -1 -1 -1 -1 -1 -1 -1 -1 -1 -1 -1 -1]
[-1 -1 -1 -1 -1 -1 -1 165 -1 -1 -1 -1 -1 -1 -1 192 -1 -1 -1 -1 -1 -1 399 126 -1 -1 -1 -1 -1 466 -1 290 0 -1 -1 246 -1 -1 -1 -1 -1 -1 -1 -1 451 -1 -1 -1 -1 -1 -1 -1 -1 -1 -1 -1 135 -1 -1 -1 -1 -1 -1 222 -1 -1 320 -1 -1 -1 -1 -1 -1 -1 -1 -1 -1 -1 198 -1 -1 287 474 -1 -1 -1 -1 -1 -1 -1 -1 242 -1 -1 409 -1 -1 -1 368 420]
[-1 136 320 -1 -1 -1 -1 -1 -1 -1 -1 -1 -1 -1 -1 -1 -1 379 167 -1 -1 -1 151 -1 -1 -1 -1 -1 -1 -1 -1 111 -1 0 -1 -1 -1 -1 204 -1 -1 428 -1 -1 -1 -1 355 380 -1 -1 -1 -1 -1 315 -1 -1 -1 450 -1 -1 -1 -1 -1 -1 -1 -1 -1 -1 276 -1 -1 -1 -1 -1 -1 -1 119 132 351 -1 -1 -1 -1 -1 -1 -1 -1 -1 -1 -1 -1 -1 -1 -1 -1 -1 -1 -1 -1 -1]
[-1 -1 154 -1 -1 -1 -1 -1 -1 -1 412 -1 -1 -1 -1 -1 -1 -1 -1 -1 -1 -1 -1 -1 472 278 480 409 -1 -1 -1 200 -1 -1 0 -1 -1 -1 -1 119 -1 391 -1 -1 -1 -1 -1 -1 -1 -1 -1 149 467 -1 -1 -1 409 -1 284 -1 -1 -1 -1 400 -1 -1 -1 -1 -1 -1 283 -1 -1 -1 436 -1 -1 -1 -1 -1 -1 -1 -1 -1 -1 -1 -1 213 -1 -1 329 454 -1 -1 -1 -1 -1 -1 359 -1]
[390 392 -1 124 -1 -1 142 -1 -1 -1 -1 -1 311 -1 -1 193 -1 -1 -1 264 -1 -1 -1 -1 -1 444 319 -1 -1 482 -1 -1 246 -1 -1 0 136 -1 -1 418 -1 -1 -1 -1 132 -1 312 387 -1 -1 -1 185 439 -1 -1 -1 130 -1 474 -1 -1 -1 -1 101 238 266 -1 -1 -1 -1 -1 -1 -1 219 -1 -1 -1 -1 497 -1 -1 -1 -1 -1 -1 221 -1 390 -1 -1 -1 480 -1 -1 336 -1 -1 -1 -1 -1]
[-1 -1 -1 -1 -1 331 -1 248 -1 -1 429 223 387 312 -1 -1 -1 -1 -1 -1 131 296 -1 -1 -1 -1 209 305 -1 -1 376 -1 -1 -1 -1 136 0 -1 -1 -1 -1 -1 -1 -1 367 -1 -1 -1 147 -1 -1 -1 -1 -1 -1 208 -1 -1 -1 -1 -1 -1 387 -1 -1 138 219 349 -1 -1 -1 -1 -1 -1 -1 -1 -1 -1 454 -1 -1 -1 -1 -1 -1 -1 214 -1 -1 -1 -1 -1 -1 -1 209 -1 332 -1 -1 -1]
[-1 -1 -1 422 498 -1 -1 139 -1 182 240 -1 -1 342 -1 -1 -1 211 -1 -1 -1 -1 -1 -1 -1 -1 -1 -1 -1 -1 -1 -1 -1 -1 -1 -1 -1 0 -1 -1 -1 -1 -1 -1 -1 -1 432 -1 312 -1 269 207 -1 -1 -1 -1 -1 -1 -1 -1 -1 455 -1 -1 -1 -1 -1 -1 -1 -1 -1 -1 -1 -1 273 -1 -1 -1 -1 -1 -1 -1 191 271 -1 -1 -1 -1 199 332 273 -1 -1 -1 254 -1 -1 -1 -1 232]
[450 -1 -1 334 -1 -1 -1 -1 -1 -1 125 -1 -1 -1 -1 283 402 -1 372 294 434 -1 -1 -1 133 -1 -1 -1 -1 -1 -1 -1 -1 204 -1 -1 -1 -1 0 -1 445 -1 -1 -1 252 -1 -1 233 -1 -1 -1 152 -1 -1 451 274 -1 260 -1 -1 -1 -1 -1 -1 -1 -1 -1 -1 -1 -1 -1 -1 -1 -1 -1 -1 -1 -1 -1 -1 -1 -1 405 -1 -1 -1 227 -1 -1 -1 -1 273 -1 150 113 325 247 388 411 278]
[-1 -1 -1 -1 -1 -1 112 -1 -1 -1 -1 -1 -1 -1 -1 -1 260 -1 -1 -1 -1 -1 -1 -1 -1 434 -1 -1 -1 -1 412 -1 -1 -1 119 418 -1 -1 -1 0 -1 -1 -1 487 -1 -1 -1 -1 408 -1 -1 -1 -1 -1 -1 -1 -1 -1 -1 -1 -1 -1 -1 -1 296 -1 -1 -1 -1 -1 -1 -1 -1 -1 -1 -1 -1 -1 -1 158 -1 -1 -1 -1 -1 -1 392 -1 -1 -1 -1 -1 -1 -1 -1 -1 309 232 -1 -1]
[-1 -1 -1 -1 -1 286 -1 -1 146 155 -1 -1 -1 -1 -1 -1 -1 446 -1 -1 -1 -1 -1 461 114 -1 -1 -1 -1 -1 -1 -1 -1 -1 -1 -1 -1 -1 445 -1 0 -1 -1 -1 -1 -1 -1 -1 -1 169 -1 -1 -1 -1 188 166 -1 -1 -1 -1 -1 219 378 258 482 -1 -1 -1 473 289 -1 219 -1 -1 -1 -1 -1 -1 -1 -1 -1 427 462 -1 -1 -1 -1 140 -1 -1 -1 -1 254 -1 -1 -1 -1 285 -1 -1]
[-1 -1 -1 -1 366 107 -1 -1 -1 -1 -1 292 438 -1 -1 -1 -1 -1 -1 -1 -1 -1 -1 -1 -1 -1 -1 -1 -1 474 -1 -1 -1 428 391 -1 -1 -1 -1 -1 -1 0 -1 -1 -1 -1 -1 411 235 -1 -1 231 -1 -1 -1 -1 -1 -1 204 -1 -1 -1 -1 -1 -1 -1 -1 330 -1 -1 104 -1 -1 -1 -1 -1 -1 284 -1 -1 -1 -1 200 -1 -1 -1 -1 -1 -1 -1 -1 -1 316 -1 -1 -1 -1 -1 -1 -1]
[-1 -1 -1 -1 -1 -1 -1 -1 -1 275 -1 -1 -1 -1 -1 -1 -1 -1 462 -1 492 -1 -1 -1 460 -1 -1 -1 -1 210 -1 -1 -1 -1 -1 -1 -1 -1 -1 -1 -1 -1 0 -1 -1 -1 436 -1 254 -1 -1 -1 -1 -1 -1 -1 -1 -1 238 397 -1 498 -1 -1 -1 432 -1 -1 -1 -1 432 -1 -1 333 -1 -1 -1 -1 -1 -1 -1 -1 490 -1 -1 -1 226 -1 -1 -1 -1 137 414 -1 -1 -1 -1 -1 -1 -1]
[101 -1 -1 188 482 -1 -1 -1 -1 -1 -1 488 -1 -1 -1 -1 -1 -1 -1 -1 -1 -1 -1 -1 295 295 -1 327 -1 -1 -1 -1 -1 -1 -1 -1 -1 -1 -1 487 -1 -1 -1 0 -1 -1 -1 474 -1 -1 -1 -1 -1 376 -1 413 -1 -1 -1 -1 -1 -1 -1 -1 -1 -1 -1 430 308 -1 480 -1 414 -1 426 -1 -1 -1 -1 -1 241 -1 -1 -1 408 -1 -1 -1 -1 -1 -1 -1 -1 -1 -1 -1 -1 -1 -1 437]
[375 -1 -1 450 -1 -1 -1 -1 -1 -1 -1 -1 -1 -1 -1 -1 -1 -1 -1 -1 -1 -1 -1 -1 -1 -1 -1 179 -1 -1 -1 -1 451 -1 -1 132 367 -1 252 -1 -1 -1 -1 -1 0 -1 -1 -1 -1 -1 -1 -1 -1 -1 -1 251 -1 212 -1 331 -1 327 -1 -1 -1 241 -1 300 383 265 -1 -1 -1 306 -1 461 332 -1 -1 -1 -1 401 -1 -1 -1 -1 -1 -1 -1 -1 -1 -1 473 -1 -1 -1 474 -1 -1 -1]
[-1 231 452 -1 -1 -1 315 -1 -1 -1 -1 -1 -1 -1 256 -1 -1 -1 -1 -1 -1 -1 -1 -1 -1 -1 -1 114 169 -1 -1 -1 -1 -1 -1 -1 -1 -1 -1 -1 -1 -1 -1 -1 -1 0 135 139 -1 328 -1 -1 359 -1 -1 -1 -1 -1 -1 -1 -1 -1 390 206 -1 -1 -1 -1 -1 -1 -1 -1 -1 -1 -1 -1 341 -1 -1 396 449 -1 316 205 -1 -1 405 -1 -1 -1 188 -1 -1 -1 326 434 433 -1 -1 -1]
[-1 -1 -1 -1 -1 345 -1 -1 -1 111 -1 232 -1 -1 -1 -1 439 -1 -1 -1 336 -1 -1 -1 -1 -1 -1 269 -1 -1 -1 -1 -1 355 -1 312 -1 432 -1 -1 -1 -1 436 -1 -1 135 0 -1 -1 -1 -1 -1 -1 186 -1 -1 -1 -1 -1 -1 -1 -1 -1 -1 -1 -1 320 -1 171 -1 -1 -1 -1 -1 -1 260 336 159 -1 -1 -1 -1 -1 -1 483 -1 -1 -1 -1 -1 -1 -1 -1 -1 -1 257 482 -1 -1 282]
[-1 -1 -1 -1 445 -1 323 317 493 -1 -1 -1 165 -1 -1 -1 -1 273 -1 107 -1 -1 -1 -1 -1 -1 -1 -1 -1 -1 -1 -1 -1 380 -1 387 -1 -1 233 -1 -1 411 -1 474 -1 139 -1 0 -1 443 -1 -1 -1 -1 -1 -1 -1 -1 -1 -1 -1 423 254 -1 -1 256 -1 -1 -1 -1 -1 -1 -1 143 -1 -1 -1 395 -1 -1 -1 -1 -1 -1 -1 -1 -1 -1 -1 257 -1 385 -1 -1 -1 -1 -1 -1 -1 454]
[-1 387 -1 -1 215 -1 -1 119 -1 -1 -1 -1 -1 397 -1 -1 -1 317 125 323 -1 -1 -1 -1 -1 -1 -1 295 -1 -1 -1 -1 -1 -1 -1 -1 147 312 -1 408 -1 235 254 -1 -1 -1 -1 -1 0 -1 430 -1 -1 -1 395 -1 212 -1 -1 -1 -1 -1 -1 -1 -1 -1 360 -1 -1 -1 -1 -1 435 -1 -1 -1 311 361 -1 -1 -1 -1 424 -1 -1 -1 -1 -1 -1 -1 201 -1 440 -1 -1 -1 -1 411 -1 -1]
[-1 -1 -1 -1 -1 -1 -1 -1 -1 -1 292 407 -1 -1 261 -1 -1 -1 -1 -1 114 -1 122 -1 -1 -1 -1 323 117 -1 -1 -1 -1 -1 -1 -1 -1 -1 -1 -1 169 -1 -1 -1 -1 328 -1 443 -1 0 -1 -1 -1 -1 -1 -1 196 324 -1 -1 -1 -1 489 -1 -1 -1 -1 413 -1 294 -1 -1 -1 -1 -1 -1 364 -1 -1 -1 -1 -1 -1 -1 -1 -1 -1 -1 215 -1 -1 -1 -1 -1 -1 -1 411 -1 -1 -1]
[-1 -1 -1 -1 -1 -1 -1 -1 -1 -1 212 -1 -1 -1 -1 -1 415 -1 424 -1 -1 -1 -1 -1 -1 -1 -1 -1 -1 -1 -1 -1 -1 -1 -1 -1 -1 269 -1 -1 -1 -1 -1 -1 -1 -1 -1 -1 430 -1 0 -1 -1 -1 -1 -1 -1 -1 -1 -1 -1 -1 -1 -1 -1 334 361 -1 -1 353 -1 -1 -1 -1 -1 -1 -1 317 -1 288 -1 -1 209 -1 -1 -1 -1 -1 -1 -1 300 -1 -1 -1 -1 -1 -1 -1 -1 -1]
[337 -1 -1 439 491 -1 -1 -1 -1 -1 -1 265 -1 -1 -1 -1 156 -1 -1 -1 -1 -1 -1 -1 -1 -1 -1 -1 -1 -1 -1 448 -1 -1 149 185 -1 207 152 -1 -1 231 -1 -1 -1 -1 -1 -1 -1 -1 -1 0 -1 -1 -1 -1 -1 -1 -1 340 -1 -1 -1 -1 -1 -1 -1 -1 252 -1 269 432 145 -1 -1 -1 -1 481 -1 -1 -1 -1 160 -1 -1 -1 -1 356 -1 184 418 -1 -1 -1 -1 -1 154 149 -1 -1]
[246 -1 -1 -1 -1 216 -1 281 -1 499 -1 -1 -1 -1 -1 352 -1 228 494 -1 -1 440 318 -1 -1 -1 -1 342 304 -1 -1 -1 -1 -1 467 439 -1 -1 -1 -1 -1 -1 -1 -1 -1 359 -1 -1 -1 -1 -1 -1 0 -1 -1 -1 -1 -1 -1 -1 -1 -1 -1 -1 -1 -1 -1 -1 350 -1 -1 -1 -1 334 -1 -1 -1 -1 -1 -1 -1 -1 123 -1 -1 -1 -1 461 -1 -1 -1 -1 -1 -1 -1 -1 -1 146 -1 -1]
[-1 -1 481 -1 -1 449 -1 -1 -1 410 -1 -1 425 -1 292 -1 -1 138 -1 -1 -1 -1 -1 -1 -1 -1 -1 -1 -1 -1 -1 -1 -1 315 -1 -1 -1 -1 -1 -1 -1 -1 -1 376 -1 -1 186 -1 -1 -1 -1 -1 -1 0 -1 -1 -1 -1 -1 -1 -1 -1 500 120 123 418 -1 -1 -1 -1 -1 486 -1 328 -1 -1 420 130 393 -1 -1 -1 -1 -1 -1 -1 -1 -1 -1 -1 -1 -1 169 -1 -1 -1 -1 -1 -1 -1]
[-1 116 -1 -1 160 333 -1 -1 -1 -1 -1 -1 -1 -1 -1 111 -1 -1 -1 -1 -1 -1 -1 -1 -1 464 -1 -1 -1 -1 -1 -1 -1 -1 -1 -1 -1 -1 451 -1 188 -1 -1 -1 -1 -1 -1 -1 395 -1 -1 -1 -1 -1 0 -1 -1 382 373 -1 -1 -1 301 -1 -1 -1 -1 334 232 -1 272 -1 -1 -1 -1 -1 -1 -1 -1 -1 -1 425 -1 -1 -1 -1 -1 -1 -1 185 -1 -1 -1 -1 212 -1 372 -1 -1 -1]
[114 -1 -1 -1 -1 308 -1 -1 -1 -1 -1 -1 -1 -1 -1 342 288 -1 -1 -1 -1 401 306 341 -1 -1 -1 -1 -1 -1 -1 -1 -1 -1 -1 -1 208 -1 274 -1 166 -1 -1 413 251 -1 -1 -1 -1 -1 -1 -1 -1 -1 -1 0 -1 -1 -1 -1 -1 -1 -1 -1 -1 -1 -1 126 -1 -1 476 -1 424 370 -1 -1 -1 -1 -1 368 -1 252 -1 -1 444 -1 -1 308 -1 -1 496 274 -1 -1 -1 -1 -1 -1 -1 -1]
[124 489 -1 -1 -1 -1 -1 -1 -1 -1 -1 -1 -1 -1 -1 -1 223 -1 259 -1 -1 -1 -1 -1 -1 476 313 -1 -1 -1 -1 159 135 -1 409 130 -1 -1 -1 -1 -1 -1 -1 -1 -1 -1 -1 -1 212 196 -1 -1 -1 -1 -1 -1 0 -1 187 -1 -1 270 -1 -1 -1 247 -1 -1 -1 212 -1 -1 344 -1 -1 261 -1 -1 409 -1 225 -1 -1 -1 126 482 -1 -1 -1 -1 -1 448 -1 -1 134 146 -1 -1 -1 -1]
[-1 -1 -1 -1 117 -1 -1 128 -1 195 -1 -1 -1 -1 -1 -1 282 -1 -1 376 -1 -1 -1 -1 -1 -1 -1 -1 -1 -1 274 297 -1 450 -1 -1 -1 -1 260 -1 -1 -1 -1 -1 212 -1 -1 -1 -1 324 -1 -1 -1 -1 382 -1 -1 0 -1 -1 -1 -1 -1 457 -1 -1 -1 -1 404 207 -1 -1 -1 -1 214 449 -1 -1 424 -1 -1 -1 -1 -1 -1 231 377 486 -1 -1 -1 -1 113 -1 -1 -1 -1 -1 -1 -1]
[-1 -1 -1 -1 -1 135 150 -1 -1 464 -1 -1 -1 -1 -1 -1 -1 -1 335 -1 -1 -1 -1 -1 -1 -1 -1 -1 -1 -1 -1 -1 -1 -1 284 474 -1 -1 -1 -1 -1 204 238 -1 -1 -1 -1 -1 -1 -1 -1 -1 -1 -1 373 -1 187 -1 0 -1 -1 -1 -1 -1 -1 -1 -1 -1 -1 -1 -1 -1 -1 -1 437 -1 -1 -1 -1 -1 244 -1 -1 477 -1 -1 -1 -1 -1 -1 -1 -1 -1 -1 -1 386 -1 -1 -1 310]
[-1 -1 -1 -1 -1 -1 -1 -1 -1 -1 -1 -1 -1 -1 -1 237 424 134 -1 151 -1 473 -1 -1 -1 -1 -1 -1 -1 -1 -1 -1 -1 -1 -1 -1 -1 -1 -1 -1 -1 -1 397 -1 331 -1 -1 -1 -1 -1 -1 340 -1 -1 -1 -1 -1 -1 -1 0 346 -1 433 -1 -1 -1 -1 -1 -1 334 236 -1 -1 -1 -1 -1 -1 -1 -1 369 -1 235 -1 -1 -1 -1 -1 165 -1 -1 -1 431 -1 -1 286 -1 114 -1 -1 -1]
[-1 -1 -1 -1 129 -1 -1 478 -1 229 -1 -1 -1 435 -1 -1 -1 348 -1 -1 291 -1 -1 -1 -1 160 -1 -1 215 306 -1 -1 -1 -1 -1 -1 -1 -1 -1 -1 -1 -1 -1 -1 -1 -1 -1 -1 -1 -1 -1 -1 -1 -1 -1 -1 -1 -1 -1 346 0 -1 -1 -1 -1 -1 -1 293 -1 -1 -1 -1 -1 434 -1 -1 -1 -1 -1 299 -1 -1 -1 -1 -1 -1 -1 -1 -1 -1 -1 -1 301 362 -1 295 -1 -1 179 -1]
[-1 -1 -1 -1 -1 -1 -1 495 -1 -1 129 -1 -1 -1 -1 -1 -1 -1 -1 -1 -1 -1 -1 -1 -1 -1 161 -1 -1 -1 -1 -1 -1 -1 -1 -1 -1 455 -1 -1 219 -1 498 -1 327 -1 -1 423 -1 -1 -1 -1 -1 -1 -1 -1 270 -1 -1 -1 -1 0 -1 -1 -1 -1 -1 -1 255 -1 119 -1 -1 282 -1 -1 361 -1 253 -1 -1 -1 -1 -1 -1 -1 -1 193 310 -1 -1 -1 203 -1 -1 -1 -1 -1 400 166]
[-1 265 -1 -1 181 -1 -1 216 -1 -1 -1 255 -1 -1 -1 -1 -1 -1 -1 -1 -1 -1 -1 -1 -1 -1 284 -1 -1 -1 -1 289 -1 -1 -1 -1 387 -1 -1 -1 378 -1 -1 -1 -1 390 -1 254 -1 489 -1 -1 -1 500 301 -1 -1 -1 -1 433 -1 -1 0 -1 186 -1 357 -1 -1 -1 -1 -1 -1 -1 -1 -1 -1 -1 -1 -1 -1 -1 -1 -1 -1 364 -1 209 458 -1 -1 -1 402 -1 243 -1 -1 286 -1 -1]
[159 -1 -1 -1 -1 207 -1 -1 -1 -1 -1 -1 -1 492 -1 107 -1 -1 238 -1 209 -1 -1 -1 -1 -1 -1 -1 -1 -1 -1 -1 222 -1 400 101 -1 -1 -1 -1 258 -1 -1 -1 -1 206 -1 -1 -1 -1 -1 -1 -1 120 -1 -1 -1 457 -1 -1 -1 -1 -1 0 -1 -1 -1 -1 -1 278 -1 129 -1 -1 160 -1 327 -1 -1 -1 -1 -1 -1 -1 -1 -1 469 -1 -1 -1 -1 301 229 -1 410 -1 -1 367 -1 355]
[-1 -1 -1 494 -1 -1 -1 -1 -1 -1 -1 -1 -1 182 493 -1 -1 -1 -1 -1 -1 -1 -1 -1 -1 -1 -1 -1 450 213 -1 -1 -1 -1 -1 238 -1 -1 -1 296 482 -1 -1 -1 -1 -1 -1 -1 -1 -1 -1 -1 -1 123 -1 -1 -1 -1 -1 -1 -1 -1 186 -1 0 -1 -1 -1 -1 -1 -1 -1 -1 -1 113 -1 348 -1 -1 328 -1 -1 -1 -1 -1 -1 -1 457 206 -1 -1 216 178 -1 -1 -1 197 482 -1 288]
[-1 -1 -1 -1 -1 346 -1 -1 -1 -1 -1 -1 360 170 -1 -1 -1 -1 -1 -1 205 -1 253 322 -1 -1 -1 -1 195 -1 -1 -1 -1 -1 -1 266 138 -1 -1 -1 -1 -1 432 -1 241 -1 -1 256 -1 -1 334 -1 -1 418 -1 -1 247 -1 -1 -1 -1 -1 -1 -1 -1 0 -1 425 282 -1 -1 -1 -1 -1 -1 189 -1 -1 -1 -1 -1 308 -1 -1 -1 -1 -1 -1 -1 -1 -1 -1 -1 -1 -1 304 -1 -1 -1 -1]
[-1 -1 -1 469 -1 -1 -1 -1 -1 262 -1 -1 197 -1 -1 -1 -1 -1 118 -1 -1 -1 -1 -1 -1 -1 -1 197 482 -1 457 474 320 -1 -1 -1 219 -1 -1 -1 -1 -1 -1 -1 -1 -1 320 -1 360 -1 361 -1 -1 -1 -1 -1 -1 -1 -1 -1 -1 -1 357 -1 -1 -1 0 239 -1 -1 -1 -1 -1 -1 -1 -1 -1 231 149 -1 -1 290 -1 -1 -1 247 -1 -1 -1 -1 -1 -1 -1 -1 -1 -1 -1 -1 -1 -1]
[-1 -1 430 -1 -1 -1 -1 -1 -1 -1 -1 -1 -1 -1 -1 184 -1 384 -1 -1 -1 -1 -1 -1 -1 -1 -1 -1 -1 -1 -1 -1 -1 -1 -1 -1 349 -1 -1 -1 -1 330 -1 430 300 -1 -1 -1 -1 413 -1 -1 -1 -1 334 126 -1 -1 -1 -1 293 -1 -1 -1 -1 425 239 0 276 469 416 -1 -1 -1 -1 -1 -1 -1 -1 -1 -1 -1 239 -1 -1 -1 -1 -1 497 -1 -1 169 -1 230 -1 -1 -1 -1 439 -1]
[-1 -1 -1 -1 -1 -1 -1 -1 -1 -1 289 -1 -1 -1 -1 -1 262 -1 -1 -1 -1 -1 -1 457 -1 -1 -1 -1 -1 -1 -1 186 -1 276 -1 -1 -1 -1 -1 -1 473 -1 -1 308 383 -1 171 -1 -1 -1 -1 252 350 -1 232 -1 -1 404 -1 -1 -1 255 -1 -1 -1 282 -1 276 0 412 -1 356 -1 -1 -1 -1 -1 -1 415 125 -1 -1 -1 -1 -1 -1 490 -1 -1 -1 -1 -1 -1 -1 -1 -1 -1 -1 -1 -1]
[-1 -1 -1 -1 100 -1 -1 -1 299 -1 247 -1 -1 -1 -1 -1 449 118 -1 -1 270 351 -1 -1 -1 -1 -1 -1 248 -1 -1 -1 -1 -1 -1 -1 -1 -1 -1 -1 289 -1 -1 -1 265 -1 -1 -1 -1 294 353 -1 -1 -1 -1 -1 212 207 -1 334 -1 -1 -1 278 -1 -1 -1 469 412 0 -1 -1 -1 -1 -1 -1 -1 -1 -1 -1 -1 414 -1 -1 -1 403 -1 -1 -1 323 -1 -1 -1 -1 -1 -1 -1 -1 -1 470]
[-1 -1 -1 495 102 -1 441 -1 -1 -1 -1 270 -1 -1 -1 -1 -1 -1 -1 -1 -1 -1 -1 -1 -1 -1 -1 -1 119 -1 -1 480 -1 -1 283 -1 -1 -1 -1 -1 -1 104 432 480 -1 -1 -1 -1 -1 -1 -1 269 -1 -1 272 476 -1 -1 -1 236 -1 119 -1 -1 -1 -1 -1 416 -1 -1 0 -1 -1 -1 -1 -1 -1 -1 -1 -1 -1 437 -1 -1 -1 -1 -1 -1 309 -1 -1 -1 -1 292 -1 -1 -1 -1 194 -1]
[322 -1 -1 -1 -1 -1 -1 -1 -1 -1 -1 378 -1 -1 214 -1 -1 -1 -1 495 -1 -1 -1 -1 -1 -1 121 -1 -1 -1 -1 225 -1 -1 -1 -1 -1 -1 -1 -1 219 -1 -1 -1 -1 -1 -1 -1 -1 -1 -1 432 -1 486 -1 -1 -1 -1 -1 -1 -1 -1 -1 129 -1 -1 -1 -1 356 -1 -1 0 -1 -1 -1 -1 -1 -1 -1 -1 -1 -1 -1 -1 -1 -1 -1 -1 -1 -1 -1 -1 -1 299 -1 -1 446 451 415 -1]
[-1 -1 -1 -1 -1 -1 321 -1 -1 424 -1 -1 -1 173 -1 -1 -1 -1 -1 338 -1 -1 -1 -1 -1 -1 132 -1 -1 493 -1 322 -1 -1 -1 -1 -1 -1 -1 -1 -1 -1 -1 414 -1 -1 -1 -1 435 -1 -1 145 -1 -1 -1 424 344 -1 -1 -1 -1 -1 -1 -1 -1 -1 -1 -1 -1 -1 -1 -1 0 -1 228 -1 442 -1 -1 -1 -1 -1 -1 -1 205 -1 282 -1 -1 245 -1 277 -1 -1 -1 -1 348 -1 -1 -1]
[414 -1 -1 356 -1 -1 -1 340 -1 -1 -1 203 -1 -1 -1 201 -1 -1 -1 339 -1 -1 -1 -1 -1 193 -1 -1 -1 -1 -1 -1 -1 -1 -1 219 -1 -1 -1 -1 -1 -1 333 -1 306 -1 -1 143 -1 -1 -1 -1 334 328 -1 370 -1 -1 -1 -1 434 282 -1 -1 -1 -1 -1 -1 -1 -1 -1 -1 -1 0 -1 476 -1 -1 -1 -1 -1 -1 -1 139 428 144 -1 -1 -1 -1 109 -1 -1 -1 141 -1 -1 -1 -1 -1]
[-1 278 -1 211 -1 -1 -1 -1 -1 -1 -1 -1 492 473 -1 -1 -1 136 -1 -1 -1 -1 -1 189 -1 -1 -1 -1 -1 -1 396 228 -1 -1 436 -1 -1 273 -1 -1 -1 -1 -1 426 -1 -1 -1 -1 -1 -1 -1 -1 -1 -1 -1 -1 -1 214 437 -1 -1 -1 -1 160 113 -1 -1 -1 -1 -1 -1 -1 228 -1 0 -1 -1 -1 -1 -1 200 -1 -1 -1 497 -1 478 433 -1 -1 -1 -1 416 236 293 -1 -1 -1 -1 277]
[-1 -1 -1 420 -1 -1 176 393 487 402 412 -1 -1 -1 -1 -1 -1 -1 -1 -1 -1 -1 -1 172 177 -1 -1 -1 -1 142 -1 365 -1 -1 -1 -1 -1 -1 -1 -1 -1 -1 -1 -1 461 -1 260 -1 -1 -1 -1 -1 -1 -1 -1 -1 261 449 -1 -1 -1 -1 -1 -1 -1 189 -1 -1 -1 -1 -1 -1 -1 476 -1 0 -1 -1 -1 -1 -1 -1 -1 -1 447 -1 -1 -1 -1 328 -1 -1 -1 161 -1 -1 -1 -1 108 -1]
[-1 261 -1 -1 -1 -1 -1 132 -1 -1 -1 -1 -1 -1 -1 -1 -1 -1 -1 -1 -1 -1 -1 148 -1 -1 -1 -1 -1 -1 -1 -1 -1 119 -1 -1 -1 -1 -1 -1 -1 -1 -1 -1 332 341 336 -1 311 364 -1 -1 -1 420 -1 -1 -1 -1 -1 -1 -1 361 -1 327 348 -1 -1 -1 -1 -1 -1 -1 442 -1 -1 -1 0 -1 -1 -1 264 -1 -1 332 -1 -1 -1 -1 402 -1 -1 -1 -1 -1 -1 -1 -1 -1 -1 -1]
[-1 105 -1 -1 -1 -1 -1 -1 -1 -1 -1 -1 -1 -1 -1 -1 -1 -1 322 -1 -1 -1 -1 -1 -1 -1 226 289 -1 -1 448 500 -1 132 -1 -1 -1 -1 -1 -1 -1 284 -1 -1 -1 -1 159 395 361 -1 317 481 -1 130 -1 -1 -1 -1 -1 -1 -1 -1 -1 -1 -1 -1 231 -1 -1 -1 -1 -1 -1 -1 -1 -1 -1 0 -1 -1 -1 441 -1 -1 -1 226 -1 -1 -1 -1 -1 287 265 -1 -1 -1 201 110 -1 -1]
[-1 -1 -1 -1 -1 -1 -1 226 -1 483 -1 179 -1 -1 -1 -1 -1 -1 -1 -1 322 -1 -1 -1 126 -1 -1 -1 463 -1 -1 -1 198 351 -1 497 454 -1 -1 -1 -1 -1 -1 -1 -1 -1 -1 -1 -1 -1 -1 -1 -1 393 -1 -1 409 424 -1 -1 -1 253 -1 -1 -1 -1 149 -1 415 -1 -1 -1 -1 -1 -1 -1 -1 -1 0 -1 -1 -1 -1 -1 -1 425 -1 -1 -1 -1 231 339 -1 -1 -1 335 451 -1 349 -1]
[-1 274 -1 -1 -1 -1 -1 -1 -1 -1 -1 -1 -1 -1 -1 -1 -1 -1 -1 108 -1 -1 -1 -1 -1 -1 214 160 -1 287 -1 -1 -1 -1 -1 -1 -1 -1 -1 158 -1 -1 -1 -1 -1 396 -1 -1 -1 -1 288 -1 -1 -1 -1 368 -1 -1 -1 369 299 -1 -1 -1 328 -1 -1 -1 125 -1 -1 -1 -1 -1 -1 -1 -1 -1 -1 0 -1 446 -1 -1 -1 -1 -1 146 -1 -1 -1 -1 105 -1 -1 387 -1 -1 -1 359]
[166 -1 -1 350 -1 -1 -1 267 -1 467 468 -1 -1 -1 188 396 -1 -1 314 -1 -1 -1 -1 347 499 -1 -1 -1 -1 -1 -1 -1 -1 -1 -1 -1 -1 -1 -1 -1 -1 -1 -1 241 -1 449 -1 -1 -1 -1 -1 -1 -1 -1 -1 -1 225 -1 244 -1 -1 -1 -1 -1 -1 -1 -1 -1 -1 -1 -1 -1 -1 -1 200 -1 264 -1 -1 -1 0 -1 -1 -1 328 -1 -1 152 271 229 -1 -1 -1 -1 -1 -1 -1 -1 121 158]
[-1 -1 272 -1 -1 173 161 375 -1 -1 -1 -1 -1 389 -1 -1 -1 -1 -1 -1 -1 -1 -1 178 -1 -1 -1 -1 -1 324 -1 -1 287 -1 -1 -1 -1 -1 -1 -1 427 -1 -1 -1 401 -1 -1 -1 -1 -1 -1 -1 -1 -1 425 252 -1 -1 -1 235 -1 -1 -1 -1 -1 308 290 -1 -1 414 437 -1 -1 -1 -1 -1 -1 441 -1 446 -1 0 263 -1 -1 -1 -1 -1 -1 -1 231 -1 241 -1 -1 -1 -1 -1 291 -1]
[-1 -1 -1 -1 -1 435 -1 -1 -1 -1 -1 -1 -1 -1 -1 -1 -1 191 -1 376 -1 -1 -1 250 119 108 -1 -1 -1 -1 -1 -1 474 -1 -1 -1 -1 191 405 -1 462 200 490 -1 -1 316 -1 -1 424 -1 209 160 123 -1 -1 -1 -1 -1 -1 -1 -1 -1 -1 -1 -1 -1 -1 239 -1 -1 -1 -1 -1 -1 -1 -1 -1 -1 -1 -1 -1 263 0 -1 -1 148 -1 -1 -1 -1 -1 -1 237 -1 -1 -1 448 -1 -1 393]
[-1 102 -1 -1 -1 -1 -1 -1 -1 -1 187 297 -1 -1 -1 -1 -1 -1 -1 -1 -1 -1 -1 -1 -1 136 -1 -1 -1 448 -1 -1 -1 -1 -1 -1 -1 271 -1 -1 -1 -1 -1 -1 -1 205 -1 -1 -1 -1 -1 -1 -1 -1 -1 -1 -1 -1 477 -1 -1 -1 -1 -1 -1 -1 -1 -1 -1 -1 -1 -1 -1 139 -1 -1 332 -1 -1 -1 -1 -1 -1 0 -1 -1 -1 -1 -1 -1 -1 -1 -1 -1 -1 -1 -1 379 -1 -1]
[-1 -1 -1 -1 -1 -1 -1 -1 -1 383 -1 474 -1 -1 -1 -1 -1 -1 -1 -1 -1 -1 -1 -1 -1 264 -1 -1 -1 -1 -1 -1 -1 -1 -1 -1 -1 -1 -1 -1 -1 -1 -1 408 -1 -1 483 -1 -1 -1 -1 -1 -1 -1 -1 444 126 -1 -1 -1 -1 -1 -1 -1 -1 -1 -1 -1 -1 -1 -1 -1 205 428 497 447 -1 -1 -1 -1 328 -1 -1 -1 0 -1 -1 308 -1 -1 -1 -1 435 -1 -1 -1 -1 -1 -1 -1]
[-1 -1 -1 -1 -1 -1 -1 -1 -1 -1 -1 -1 -1 -1 -1 -1 -1 -1 -1 139 -1 479 -1 -1 483 -1 -1 -1 -1 202 -1 -1 -1 -1 -1 221 -1 -1 -1 -1 -1 -1 -1 -1 -1 -1 -1 -1 -1 -1 -1 -1 -1 -1 -1 -1 482 231 -1 -1 -1 -1 364 -1 -1 -1 247 -1 -1 403 -1 -1 -1 144 -1 -1 -1 226 425 -1 -1 -1 148 -1 -1 0 -1 -1 499 -1 -1 -1 281 -1 166 -1 458 -1 -1 -1]
[-1 -1 -1 -1 453 -1 -1 391 414 -1 -1 381 -1 -1 -1 -1 -1 -1 -1 -1 -1 -1 -1 294 -1 129 -1 478 -1 440 272 -1 -1 -1 -1 -1 214 -1 227 392 -1 -1 226 -1 -1 405 -1 -1 -1 -1 -1 -1 -1 -1 -1 -1 -1 377 -1 -1 -1 -1 -1 469 -1 -1 -1 -1 490 -1 -1 -1 282 -1 478 -1 -1 -1 -1 -1 -1 -1 -1 -1 -1 -1 0 209 -1 -1 -1 340 -1 -1 494 -1 -1 -1 -1 -1]
[-1 -1 -1 -1 -1 -1 -1 -1 422 -1 -1 -1 -1 -1 -1 -1 -1 -1 495 -1 297 -1 -1 344 447 -1 -1 -1 -1 -1 317 -1 -1 -1 213 390 -1 -1 -1 -1 140 -1 -1 -1 -1 -1 -1 -1 -1 -1 -1 356 461 -1 -1 308 -1 486 -1 165 -1 193 209 -1 457 -1 -1 -1 -1 -1 -1 -1 -1 -1 433 -1 -1 -1 -1 146 152 -1 -1 -1 308 -1 209 0 -1 -1 261 427 -1 167 -1 -1 -1 -1 -1 -1]
[-1 -1 -1 -1 -1 -1 350 -1 -1 -1 -1 -1 -1 -1 -1 302 -1 -1 -1 -1 -1 -1 -1 -1 -1 -1 -1 -1 -1 -1 -1 -1 -1 -1 -1 -1 -1 199 -1 -1 -1 -1 -1 -1 -1 -1 -1 -1 -1 215 -1 -1 -1 -1 -1 -1 -1 -1 -1 -1 -1 310 458 -1 206 -1 -1 497 -1 -1 309 -1 -1 -1 -1 -1 402 -1 -1 -1 271 -1 -1 -1 -1 499 -1 -1 0 351 -1 -1 -1 295 -1 -1 -1 -1 233 -1]
[198 -1 -1 253 118 -1 -1 231 -1 -1 -1 -1 -1 -1 -1 299 -1 -1 -1 406 368 453 -1 -1 -1 144 -1 -1 246 -1 -1 -1 -1 -1 -1 -1 -1 332 -1 -1 -1 -1 -1 -1 -1 -1 -1 257 -1 -1 -1 184 -1 -1 185 -1 -1 -1 -1 -1 -1 -1 -1 -1 -1 -1 -1 -1 -1 323 -1 -1 245 -1 -1 328 -1 -1 -1 -1 229 -1 -1 -1 -1 -1 -1 -1 351 0 -1 -1 118 265 -1 -1 -1 -1 498 356]
[-1 281 -1 -1 -1 -1 -1 -1 -1 -1 -1 -1 -1 -1 -1 417 -1 350 -1 -1 -1 433 254 -1 -1 -1 -1 499 -1 -1 -1 -1 -1 -1 329 -1 -1 273 -1 -1 -1 -1 -1 -1 -1 188 -1 -1 201 -1 300 418 -1 -1 -1 496 -1 -1 -1 -1 -1 -1 -1 -1 -1 -1 -1 -1 -1 -1 -1 -1 -1 109 -1 -1 -1 -1 231 -1 -1 231 -1 -1 -1 -1 -1 261 -1 -1 0 -1 -1 -1 -1 -1 -1 -1 -1 228]
[175 -1 -1 -1 105 -1 -1 -1 -1 -1 -1 -1 -1 337 -1 -1 -1 253 120 -1 -1 -1 -1 -1 -1 -1 -1 -1 386 -1 -1 -1 242 -1 454 480 -1 -1 273 -1 -1 -1 137 -1 -1 -1 -1 385 -1 -1 -1 -1 -1 -1 -1 274 448 -1 -1 431 -1 -1 -1 301 216 -1 -1 169 -1 -1 -1 -1 277 -1 -1 -1 -1 287 339 -1 -1 -1 -1 -1 -1 -1 340 427 -1 -1 -1 0 -1 -1 -1 -1 -1 -1 -1 -1]
[-1 -1 -1 -1 147 -1 -1 213 -1 -1 -1 -1 -1 -1 338 -1 -1 -1 -1 -1 -1 -1 -1 -1 -1 331 -1 -1 -1 -1 194 -1 -1 -1 -1 -1 -1 -1 -1 -1 254 316 414 -1 473 -1 -1 -1 440 -1 -1 -1 -1 169 -1 -1 -1 113 -1 -1 301 203 402 229 178 -1 -1 -1 -1 -1 -1 -1 -1 -1 416 -1 -1 265 -1 105 -1 241 237 -1 435 281 -1 -1 -1 118 -1 -1 0 324 -1 -1 -1 -1 -1 213]
[407 -1 169 -1 262 -1 -1 -1 448 -1 -1 -1 -1 -1 -1 -1 -1 -1 -1 -1 -1 -1 213 -1 -1 338 -1 -1 -1 -1 -1 -1 -1 -1 -1 -1 -1 -1 150 -1 -1 -1 -1 -1 -1 -1 -1 -1 -1 -1 -1 -1 -1 -1 -1 -1 -1 -1 -1 -1 362 -1 -1 -1 -1 -1 -1 230 -1 -1 292 299 -1 -1 236 161 -1 -1 -1 -1 -1 -1 -1 -1 -1 -1 -1 167 295 265 -1 -1 324 0 256 -1 -1 -1 -1 -1]
[-1 -1 413 -1 -1 -1 221 -1 319 -1 -1 -1 -1 -1 -1 -1 -1 174 -1 -1 242 -1 -1 -1 442 -1 -1 -1 477 416 -1 -1 409 -1 -1 336 209 254 113 -1 -1 -1 -1 -1 -1 326 -1 -1 -1 -1 -1 -1 -1 -1 212 -1 134 -1 -1 286 -1 -1 243 410 -1 -1 -1 -1 -1 -1 -1 -1 -1 141 293 -1 -1 -1 -1 -1 -1 -1 -1 -1 -1 166 494 -1 -1 -1 -1 -1 -1 256 0 462 -1 -1 -1 -1]
[-1 -1 371 -1 -1 -1 -1 -1 -1 -1 -1 -1 -1 353 -1 -1 -1 -1 412 216 -1 -1 -1 -1 -1 -1 161 -1 432 -1 424 -1 -1 -1 -1 -1 -1 -1 325 -1 -1 -1 -1 -1 -1 434 257 -1 -1 -1 -1 -1 -1 -1 -1 -1 146 -1 386 -1 295 -1 -1 -1 -1 304 -1 -1 -1 -1 -1 -1 -1 -1 -1 -1 -1 -1 335 387 -1 -1 -1 -1 -1 -1 -1 -1 -1 -1 -1 -1 -1 -1 462 0 -1 -1 -1 -1]
[-1 -1 -1 -1 -1 -1 -1 367 462 -1 116 -1 -1 436 -1 -1 -1 -1 -1 -1 -1 -1 -1 -1 184 -1 -1 -1 361 -1 -1 -1 -1 -1 -1 -1 332 -1 247 309 -1 -1 -1 -1 474 433 482 -1 -1 411 -1 154 -1 -1 372 -1 -1 -1 -1 114 -1 -1 -1 -1 197 -1 -1 -1 -1 -1 -1 446 348 -1 -1 -1 -1 201 451 -1 -1 -1 448 -1 -1 458 -1 -1 -1 -1 -1 -1 -1 -1 -1 -1 0 -1 -1 337]
[-1 353 -1 -1 -1 -1 323 451 -1 -1 -1 -1 -1 -1 -1 237 -1 131 -1 -1 -1 -1 186 -1 454 314 418 -1 -1 -1 -1 -1 -1 -1 -1 -1 -1 -1 388 232 285 -1 -1 -1 -1 -1 -1 -1 411 -1 -1 149 146 -1 -1 -1 -1 -1 -1 -1 -1 -1 286 367 482 -1 -1 -1 -1 -1 -1 451 -1 -1 -1 -1 -1 110 -1 -1 -1 -1 -1 379 -1 -1 -1 -1 -1 -1 -1 -1 -1 -1 -1 -1 -1 0 -1 -1]
[-1 -1 182 -1 302 -1 -1 -1 -1 -1 -1 -1 142 -1 -1 -1 -1 181 293 407 105 -1 489 -1 423 -1 -1 -1 228 -1 -1 -1 368 -1 359 -1 -1 -1 411 -1 -1 -1 -1 -1 -1 -1 -1 -1 -1 -1 -1 -1 -1 -1 -1 -1 -1 -1 -1 -1 179 400 -1 -1 -1 -1 -1 439 -1 -1 194 415 -1 -1 -1 108 -1 -1 349 -1 121 291 -1 -1 -1 -1 -1 -1 233 498 -1 -1 -1 -1 -1 -1 -1 -1 0 -1]
[-1 109 -1 -1 -1 -1 -1 329 -1 -1 -1 -1 -1 -1 -1 191 -1 -1 -1 -1 -1 -1 446 -1 -1 168 -1 -1 -1 117 -1 -1 420 -1 -1 -1 -1 232 278 -1 -1 -1 -1 437 -1 -1 282 454 -1 -1 -1 -1 -1 -1 -1 -1 -1 -1 310 -1 -1 166 -1 355 288 -1 -1 -1 -1 470 -1 -1 -1 -1 277 -1 -1 -1 -1 359 158 -1 393 -1 -1 -1 -1 -1 -1 356 228 -1 213 -1 -1 -1 337 -1 -1 0]
];
